
Gurobi 9.5.2 (mac64[arm]) logging started Fri Apr 28 19:58:08 2023

Set parameter LogFile to value "Java/output/iterative_model_2_machine/scenario_seed_1_nJob_50_machineCount_2/mip_increment_2/log.txt"
Gurobi Optimizer version 9.5.2 build v9.5.2rc0 (mac64[arm])
Thread count: 8 physical cores, 8 logical processors, using up to 8 threads
Optimize a model with 1316 rows, 9888 columns and 65899 nonzeros
Model fingerprint: 0x7059227f
Variable types: 0 continuous, 9888 integer (9888 binary)
Coefficient statistics:
  Matrix range     [1e+00, 2e+02]
  Objective range  [6e+01, 4e+06]
  Bounds range     [1e+00, 1e+00]
  RHS range        [1e+00, 1e+00]
Found heuristic solution: objective 1.752811e+07
Presolve removed 68 rows and 934 columns
Presolve time: 0.07s
Presolved: 1248 rows, 8954 columns, 59019 nonzeros
Variable types: 0 continuous, 8954 integer (8950 binary)
Found heuristic solution: objective 1.051942e+07

Root relaxation: objective 8.855177e+03, 1717 iterations, 0.07 seconds (0.16 work units)

    Nodes    |    Current Node    |     Objective Bounds      |     Work
 Expl Unexpl |  Obj  Depth IntInf | Incumbent    BestBd   Gap | It/Node Time

     0     0 8855.17660    0  158 1.0519e+07 8855.17660   100%     -    0s
H    0     0                    4451152.0000 8855.17660   100%     -    0s
H    0     0                    2209136.0000 8855.17660   100%     -    0s
H    0     0                    1913808.0000 8855.17660   100%     -    0s
H    0     0                    1336064.0000 8897.71234  99.3%     -    0s
     0     0 8897.71234    0  167 1336064.00 8897.71234  99.3%     -    0s
H    0     0                    1335808.0000 8897.71234  99.3%     -    0s
H    0     0                    1334144.0000 8897.71234  99.3%     -    0s
H    0     0                    41824.000000 8925.70385  78.7%     -    0s
     0     0 8925.70385    0  213 41824.0000 8925.70385  78.7%     -    0s
H    0     0                    12496.000000 8925.70385  28.6%     -    0s
     0     0 8926.55630    0  205 12496.0000 8926.55630  28.6%     -    0s
     0     0 8926.73653    0  209 12496.0000 8926.73653  28.6%     -    0s
     0     0 8926.73653    0  210 12496.0000 8926.73653  28.6%     -    0s
     0     0 8968.27855    0  235 12496.0000 8968.27855  28.2%     -    0s
     0     0 8968.27855    0  147 12496.0000 8968.27855  28.2%     -    0s
H    0     0                    12416.000000 8968.27855  27.8%     -    0s
     0     0 8968.27855    0  190 12416.0000 8968.27855  27.8%     -    1s
     0     0 8968.27855    0  211 12416.0000 8968.27855  27.8%     -    1s
     0     0 8972.28249    0  206 12416.0000 8972.28249  27.7%     -    1s
     0     0 8974.23930    0  215 12416.0000 8974.23930  27.7%     -    1s
     0     0 8974.52319    0  234 12416.0000 8974.52319  27.7%     -    1s
     0     0 8974.53243    0  234 12416.0000 8974.53243  27.7%     -    1s
     0     0 8985.33960    0  241 12416.0000 8985.33960  27.6%     -    1s
H    0     0                    12352.000000 8985.33960  27.3%     -    1s
     0     0 8989.50811    0  239 12352.0000 8989.50811  27.2%     -    1s
     0     0 8990.70124    0  245 12352.0000 8990.70124  27.2%     -    1s
     0     0 8990.72251    0  247 12352.0000 8990.72251  27.2%     -    1s
     0     0 9003.03796    0  261 12352.0000 9003.03796  27.1%     -    1s
H    0     0                    12320.000000 9003.03796  26.9%     -    1s
H    0     0                    10560.000000 9003.03796  14.7%     -    1s
     0     0 9004.73878    0  271 10560.0000 9004.73878  14.7%     -    1s
H    0     0                    10464.000000 9004.73878  13.9%     -    1s
H    0     0                    10320.000000 9004.73878  12.7%     -    1s
     0     0 9005.22305    0  266 10320.0000 9005.22305  12.7%     -    1s
     0     0 9005.22305    0  268 10320.0000 9005.22305  12.7%     -    1s
     0     0 9015.56003    0  271 10320.0000 9015.56003  12.6%     -    1s
H    0     0                    10256.000000 9015.56003  12.1%     -    1s
H    0     0                    10160.000000 9015.56003  11.3%     -    1s
     0     0 9019.45348    0  275 10160.0000 9019.45348  11.2%     -    1s
     0     0 9019.98854    0  294 10160.0000 9019.98854  11.2%     -    1s
     0     0 9020.03708    0  287 10160.0000 9020.03708  11.2%     -    1s
     0     0 9032.78205    0  297 10160.0000 9032.78205  11.1%     -    1s
     0     0 9034.93280    0  303 10160.0000 9034.93280  11.1%     -    1s
     0     0 9035.13267    0  302 10160.0000 9035.13267  11.1%     -    1s
     0     0 9035.13267    0  305 10160.0000 9035.13267  11.1%     -    1s
     0     0 9043.06014    0  265 10160.0000 9043.06014  11.0%     -    1s
     0     0 9043.80326    0  275 10160.0000 9043.80326  11.0%     -    1s
     0     0 9044.08808    0  281 10160.0000 9044.08808  11.0%     -    1s
     0     0 9044.08808    0  281 10160.0000 9044.08808  11.0%     -    1s
     0     0 9044.95916    0  281 10160.0000 9044.95916  11.0%     -    1s
     0     0 9044.95916    0  275 10160.0000 9044.95916  11.0%     -    1s
H    0     0                    9568.0000000 9045.46583  5.46%     -    1s
     0     2 9045.46583    0  259 9568.00000 9045.46583  5.46%     -    1s
H   31    40                    9488.0000000 9060.51524  4.51%   416    2s
H  127   129                    9440.0000000 9061.45805  4.01%   361    2s
H  147   143                    9424.0000000 9061.45805  3.85%   353    2s
H  228   208                    9392.0000000 9061.45805  3.52%   355    3s
H  546   441                    9264.0000000 9061.45805  2.19%   278    4s
  1061   534 9262.30625   18  156 9264.00000 9082.81417  1.96%   251    5s
H 1531   757                    9168.0000000 9091.56259  0.83%   256    7s
  1573   787 9100.93586   26  308 9168.00000 9098.46292  0.76%   262   10s

Cutting planes:
  Cover: 2
  Clique: 55
  MIR: 142
  StrongCG: 27
  Flow cover: 63
  GUB cover: 56
  Inf proof: 1
  Zero half: 19
  RLT: 1

Explored 1803 nodes (486096 simplex iterations) in 11.54 seconds (26.52 work units)
Thread count was 8 (of 8 available processors)

Solution count 10: 9168 9264 9392 ... 10320

Optimal solution found (tolerance 1.00e-04)
Best objective 9.168000000000e+03, best bound 9.168000000000e+03, gap 0.0000%

Gurobi 9.5.2 (mac64[arm]) logging started Fri Apr 28 19:58:20 2023

Set parameter LogFile to value "Java/output/iterative_model_2_machine/scenario_seed_1_nJob_50_machineCount_2/mip_increment_2/log.txt"
Gurobi Optimizer version 9.5.2 build v9.5.2rc0 (mac64[arm])
Thread count: 8 physical cores, 8 logical processors, using up to 8 threads
Optimize a model with 1322 rows, 8230 columns and 60294 nonzeros
Model fingerprint: 0xbe11ccaa
Variable types: 0 continuous, 8230 integer (8230 binary)
Coefficient statistics:
  Matrix range     [1e+00, 2e+02]
  Objective range  [2e+02, 7e+05]
  Bounds range     [1e+00, 1e+00]
  RHS range        [1e+00, 1e+00]
Presolve removed 341 rows and 889 columns
Presolve time: 0.07s
Presolved: 981 rows, 7341 columns, 53064 nonzeros
Variable types: 0 continuous, 7341 integer (7339 binary)

Root relaxation: objective 5.294028e+03, 1676 iterations, 0.06 seconds (0.11 work units)

    Nodes    |    Current Node    |     Objective Bounds      |     Work
 Expl Unexpl |  Obj  Depth IntInf | Incumbent    BestBd   Gap | It/Node Time

     0     0 5294.02808    0  148          - 5294.02808      -     -    0s
H    0     0                    2021464.0000 5294.02808   100%     -    0s
H    0     0                    1615336.0000 5294.02808   100%     -    0s
H    0     0                    1114016.0000 5294.02808   100%     -    0s
H    0     0                    806516.00000 5294.02808  99.3%     -    0s
H    0     0                    294232.00000 5323.37743  98.2%     -    0s
     0     0 5323.37743    0  172 294232.000 5323.37743  98.2%     -    0s
H    0     0                    278368.00000 5323.37743  98.1%     -    0s
H    0     0                    155324.00000 5323.37743  96.6%     -    0s
H    0     0                    107764.00000 5324.40407  95.1%     -    0s
     0     0 5324.40407    0  170 107764.000 5324.40407  95.1%     -    0s
     0     0 5324.40434    0  171 107764.000 5324.40434  95.1%     -    0s
     0     0 5356.47017    0  211 107764.000 5356.47017  95.0%     -    0s
H    0     0                    91724.000000 5356.47017  94.2%     -    0s
H    0     0                    71284.000000 5361.03757  92.5%     -    0s
     0     0 5361.03888    0  216 71284.0000 5361.03888  92.5%     -    0s
     0     0 5361.16358    0  212 71284.0000 5361.16358  92.5%     -    0s
     0     0 5361.16358    0  212 71284.0000 5361.16358  92.5%     -    0s
     0     0 5391.12054    0  221 71284.0000 5391.12054  92.4%     -    0s
H    0     0                    54928.000000 5391.12054  90.2%     -    1s
     0     0 5400.37281    0  229 54928.0000 5400.37281  90.2%     -    1s
H    0     0                    38388.000000 5401.87896  85.9%     -    1s
     0     0 5401.87896    0  220 38388.0000 5401.87896  85.9%     -    1s
     0     0 5403.11930    0  222 38388.0000 5403.11930  85.9%     -    1s
     0     0 5403.13894    0  227 38388.0000 5403.13894  85.9%     -    1s
H    0     0                    34516.000000 5403.13894  84.3%     -    1s
     0     0 5439.56647    0  244 34516.0000 5439.56647  84.2%     -    1s
     0     0 5439.56647    0  139 34516.0000 5439.56647  84.2%     -    1s
H    0     0                    34500.000000 5439.56647  84.2%     -    1s
H    0     0                    34484.000000 5439.56647  84.2%     -    1s
     0     0 5439.56647    0  183 34484.0000 5439.56647  84.2%     -    1s
     0     0 5439.56647    0  211 34484.0000 5439.56647  84.2%     -    1s
     0     0 5439.56647    0  217 34484.0000 5439.56647  84.2%     -    1s
     0     0 5439.56647    0  241 34484.0000 5439.56647  84.2%     -    1s
     0     0 5440.27850    0  229 34484.0000 5440.27850  84.2%     -    1s
     0     0 5440.76846    0  237 34484.0000 5440.76846  84.2%     -    1s
     0     0 5440.82613    0  234 34484.0000 5440.82613  84.2%     -    1s
     0     0 5440.82613    0  233 34484.0000 5440.82613  84.2%     -    1s
H    0     0                    27108.000000 5440.82613  79.9%     -    2s
     0     0 5461.37744    0  253 27108.0000 5461.37744  79.9%     -    2s
     0     0 5463.02037    0  243 27108.0000 5463.02037  79.8%     -    2s
     0     0 5463.13098    0  239 27108.0000 5463.13098  79.8%     -    2s
H    0     0                    18444.000000 5463.13098  70.4%     -    2s
     0     0 5482.27718    0  250 18444.0000 5482.27718  70.3%     -    2s
     0     0 5491.79792    0  261 18444.0000 5491.79792  70.2%     -    2s
     0     0 5495.94167    0  240 18444.0000 5495.94167  70.2%     -    2s
     0     0 5498.34606    0  266 18444.0000 5498.34606  70.2%     -    2s
     0     0 5500.13417    0  276 18444.0000 5500.13417  70.2%     -    2s
     0     0 5500.15349    0  276 18444.0000 5500.15349  70.2%     -    2s
H    0     0                    18436.000000 5500.15349  70.2%     -    2s
     0     0 5512.57841    0  300 18436.0000 5512.57841  70.1%     -    2s
     0     0 5519.56790    0  274 18436.0000 5519.56790  70.1%     -    2s
     0     0 5521.51183    0  282 18436.0000 5521.51183  70.1%     -    2s
     0     0 5521.76272    0  278 18436.0000 5521.76272  70.0%     -    2s
     0     0 5526.74872    0  286 18436.0000 5526.74872  70.0%     -    2s
     0     0 5527.46096    0  301 18436.0000 5527.46096  70.0%     -    2s
     0     0 5527.70959    0  310 18436.0000 5527.70959  70.0%     -    2s
     0     0 5531.91808    0  296 18436.0000 5531.91808  70.0%     -    2s
     0     0 5532.77910    0  301 18436.0000 5532.77910  70.0%     -    2s
     0     0 5532.82970    0  310 18436.0000 5532.82970  70.0%     -    2s
     0     0 5533.46152    0  289 18436.0000 5533.46152  70.0%     -    3s
     0     0 5533.46152    0  282 18436.0000 5533.46152  70.0%     -    3s
     0     2 5533.64218    0  280 18436.0000 5533.64218  70.0%     -    3s
H   31    40                    9764.0000000 5540.34774  43.3%   572    4s
H   71    83                    9736.0000000 5547.61988  43.0%   461    4s
H   72    83                    9732.0000000 5547.61988  43.0%   463    4s
H   77    83                    9696.0000000 5547.65621  42.8%   454    4s
H   81    83                    9664.0000000 5547.65621  42.6%   452    4s
H  114   125                    9604.0000000 5547.65621  42.2%   391    4s
H  120   125                    9584.0000000 5547.65621  42.1%   393    4s
H  126   135                    9568.0000000 5547.65621  42.0%   389    4s
   150   160 5564.68852   15  219 9568.00000 5547.65621  42.0%   375    5s
H  153   160                    9508.0000000 5547.65621  41.7%   372    5s
H  156   160                    6092.0000000 5547.65621  8.94%   373    5s
H  455   408                    5964.0000000 5547.65621  6.98%   318    6s
H  468   418                    5948.0000000 5547.65621  6.73%   312    6s
H  494   442                    5916.0000000 5547.65621  6.23%   312    6s
H  552   467                    5856.0000000 5547.65621  5.27%   314    6s
H  565   467                    5852.0000000 5547.65621  5.20%   313    6s
H  676   546                    5832.0000000 5549.49374  4.84%   303    7s
H  692   517                    5748.0000000 5549.49374  3.45%   300    7s
H  700   477                    5688.0000000 5549.49374  2.44%   301    7s
H 1026   601                    5676.0000000 5551.78768  2.19%   284    8s
H 1341   699                    5660.0000000 5555.83089  1.84%   275    9s
H 1473   652                    5652.0000000 5555.83089  1.70%   269    9s
  1526   648 5610.10478   18  224 5652.00000 5555.83089  1.70%   266   10s
H 1712   703                    5636.0000000 5571.44805  1.15%   270   14s
  1900   672 5617.22997   26  282 5636.00000 5572.89366  1.12%   270   15s
* 1948   615              21    5632.0000000 5581.17902  0.90%   269   15s
H 2051   528                    5624.0000000 5589.52757  0.61%   267   15s

Cutting planes:
  Gomory: 4
  Cover: 3
  Clique: 50
  MIR: 140
  StrongCG: 55
  Flow cover: 62
  GUB cover: 95
  Inf proof: 1
  Zero half: 21
  Mod-K: 3
  RLT: 2

Explored 2219 nodes (586746 simplex iterations) in 15.61 seconds (36.74 work units)
Thread count was 8 (of 8 available processors)

Solution count 10: 5624 5632 5636 ... 5852

Optimal solution found (tolerance 1.00e-04)
Best objective 5.624000000000e+03, best bound 5.624000000000e+03, gap 0.0000%

Gurobi 9.5.2 (mac64[arm]) logging started Fri Apr 28 19:58:35 2023

Set parameter LogFile to value "Java/output/iterative_model_2_machine/scenario_seed_1_nJob_50_machineCount_2/mip_increment_2/log.txt"
Gurobi Optimizer version 9.5.2 build v9.5.2rc0 (mac64[arm])
Thread count: 8 physical cores, 8 logical processors, using up to 8 threads
Optimize a model with 1328 rows, 5910 columns and 43420 nonzeros
Model fingerprint: 0x47adc4ce
Variable types: 0 continuous, 5910 integer (5910 binary)
Coefficient statistics:
  Matrix range     [1e+00, 2e+02]
  Objective range  [9e+01, 9e+04]
  Bounds range     [1e+00, 1e+00]
  RHS range        [1e+00, 1e+00]
Presolve removed 648 rows and 998 columns
Presolve time: 0.04s
Presolved: 680 rows, 4912 columns, 35758 nonzeros
Variable types: 0 continuous, 4912 integer (4910 binary)

Root relaxation: objective 3.537209e+03, 1386 iterations, 0.04 seconds (0.06 work units)

    Nodes    |    Current Node    |     Objective Bounds      |     Work
 Expl Unexpl |  Obj  Depth IntInf | Incumbent    BestBd   Gap | It/Node Time

     0     0 3537.20899    0  112          - 3537.20899      -     -    0s
H    0     0                    219036.00000 3537.20899  98.4%     -    0s
H    0     0                    164988.00000 3537.20899  97.9%     -    0s
H    0     0                    150896.00000 3537.20899  97.7%     -    0s
H    0     0                    146812.00000 3537.20899  97.6%     -    0s
H    0     0                    28825.000000 3644.29919  87.4%     -    0s
H    0     0                    28821.000000 3644.29919  87.4%     -    0s
     0     0 3712.74488    0  167 28821.0000 3712.74488  87.1%     -    0s
H    0     0                    28723.000000 3712.74488  87.1%     -    0s
     0     0 3743.95147    0  153 28723.0000 3743.95147  87.0%     -    0s
     0     0 3755.89394    0  157 28723.0000 3755.89394  86.9%     -    0s
     0     0 3755.89394    0  160 28723.0000 3755.89394  86.9%     -    0s
H    0     0                    27477.000000 3874.14286  85.9%     -    0s
     0     0 3874.14286    0  173 27477.0000 3874.14286  85.9%     -    0s
     0     0 3906.77160    0  175 27477.0000 3906.77160  85.8%     -    0s
     0     0 3910.91014    0  166 27477.0000 3910.91014  85.8%     -    0s
     0     0 3927.40309    0  171 27477.0000 3927.40309  85.7%     -    0s
     0     0 3927.65048    0  181 27477.0000 3927.65048  85.7%     -    0s
     0     0 3927.65048    0  178 27477.0000 3927.65048  85.7%     -    0s
H    0     0                    10845.000000 3927.65048  63.8%     -    0s
     0     0 4151.55556    0  138 10845.0000 4151.55556  61.7%     -    0s
H    0     0                    10791.000000 4151.55556  61.5%     -    0s
     0     0 4165.66667    0  131 10791.0000 4165.66667  61.4%     -    0s
     0     0 4175.00000    0  129 10791.0000 4175.00000  61.3%     -    0s
     0     0 4175.00000    0  131 10791.0000 4175.00000  61.3%     -    0s
H    0     0                    4829.0000000 4221.50000  12.6%     -    0s
     0     0 4221.50000    0  104 4829.00000 4221.50000  12.6%     -    0s
H    0     0                    4627.0000000 4221.50000  8.76%     -    0s
     0     0 4221.50000    0   98 4627.00000 4221.50000  8.76%     -    0s
     0     0 4221.50000    0   73 4627.00000 4221.50000  8.76%     -    0s
     0     0 4221.50000    0  126 4627.00000 4221.50000  8.76%     -    0s
     0     0 4221.50000    0  133 4627.00000 4221.50000  8.76%     -    0s
     0     0 4221.50000    0  181 4627.00000 4221.50000  8.76%     -    0s
     0     0 4221.50000    0  102 4627.00000 4221.50000  8.76%     -    0s
     0     0 4221.50000    0   96 4627.00000 4221.50000  8.76%     -    0s
     0     0 4221.50000    0  107 4627.00000 4221.50000  8.76%     -    1s
     0     0 4221.50000    0  109 4627.00000 4221.50000  8.76%     -    1s
     0     0 4221.50000    0   91 4627.00000 4221.50000  8.76%     -    1s
H    0     0                    4231.0000000 4221.50000  0.22%     -    1s
     0     0 4221.50000    0   96 4231.00000 4221.50000  0.22%     -    1s
     0     0 4221.50000    0   81 4231.00000 4221.50000  0.22%     -    1s
     0     0 infeasible    0      4231.00000 4231.00000  0.00%     -    1s

Explored 1 nodes (12498 simplex iterations) in 1.12 seconds (1.55 work units)
Thread count was 8 (of 8 available processors)

Solution count 10: 4231 4627 4829 ... 146812

Optimal solution found (tolerance 1.00e-04)
Best objective 4.231000000000e+03, best bound 4.231000000000e+03, gap 0.0000%

Gurobi 9.5.2 (mac64[arm]) logging started Fri Apr 28 19:58:37 2023

Set parameter LogFile to value "Java/output/iterative_model_2_machine/scenario_seed_1_nJob_50_machineCount_2/mip_increment_2/log.txt"
Gurobi Optimizer version 9.5.2 build v9.5.2rc0 (mac64[arm])
Thread count: 8 physical cores, 8 logical processors, using up to 8 threads
Optimize a model with 2730 rows, 63448 columns and 730483 nonzeros
Model fingerprint: 0x4dcdf83c
Variable types: 0 continuous, 63448 integer (63448 binary)
Coefficient statistics:
  Matrix range     [1e+00, 2e+02]
  Objective range  [2e+00, 4e+06]
  Bounds range     [1e+00, 1e+00]
  RHS range        [1e+00, 1e+00]

Warning: Completing partial solution with 63294 unfixed non-continuous variables out of 63448
User MIP start produced solution with objective 16950 (0.05s)
Loaded user MIP start with objective 16950

Presolve removed 107 rows and 6723 columns
Presolve time: 0.74s
Presolved: 2623 rows, 56725 columns, 653933 nonzeros
Variable types: 0 continuous, 56725 integer (56721 binary)

Root simplex log...

Iteration    Objective       Primal Inf.    Dual Inf.      Time
   25600    1.4632937e+04   1.325963e+04   0.000000e+00      5s
   46008    1.5294390e+04   2.572241e+04   0.000000e+00     10s
   53912    1.5329405e+04   0.000000e+00   0.000000e+00     13s

Root relaxation: objective 1.532940e+04, 53912 iterations, 12.16 seconds (31.38 work units)

    Nodes    |    Current Node    |     Objective Bounds      |     Work
 Expl Unexpl |  Obj  Depth IntInf | Incumbent    BestBd   Gap | It/Node Time

     0     0 15329.4047    0  729 16950.0000 15329.4047  9.56%     -   13s
H    0     0                    16926.000000 15329.4047  9.43%     -   13s
H    0     0                    16853.000000 15329.4047  9.04%     -   14s
     0     0 15378.1228    0  851 16853.0000 15378.1228  8.75%     -   25s
     0     0 15378.1228    0  755 16853.0000 15378.1228  8.75%     -   34s
H    0     0                    16849.000000 15378.1228  8.73%     -   40s
     0     0 15378.1294    0  901 16849.0000 15378.1294  8.73%     -   40s
     0     0 15394.6706    0  919 16849.0000 15394.6706  8.63%     -   44s
     0     0 15395.9355    0  922 16849.0000 15395.9355  8.62%     -   45s
     0     0 15395.9798    0  939 16849.0000 15395.9798  8.62%     -   45s
     0     0 15395.9858    0  933 16849.0000 15395.9858  8.62%     -   45s
     0     0 15427.3926    0 1050 16849.0000 15427.3926  8.44%     -   51s
     0     0 15465.1293    0 1094 16849.0000 15465.1293  8.21%     -   57s
     0     0 15465.9654    0 1122 16849.0000 15465.9654  8.21%     -   58s
     0     0 15466.0574    0 1140 16849.0000 15466.0574  8.21%     -   59s
     0     0 15466.0721    0 1114 16849.0000 15466.0721  8.21%     -   59s
     0     0 15489.8070    0 1161 16849.0000 15489.8070  8.07%     -   65s
     0     0 15497.0184    0 1243 16849.0000 15497.0184  8.02%     -   70s
     0     0 15500.1077    0 1245 16849.0000 15500.1077  8.01%     -   72s
     0     0 15500.7593    0 1258 16849.0000 15500.7593  8.00%     -   73s
     0     0 15500.8100    0 1252 16849.0000 15500.8100  8.00%     -   74s
H    0     0                    16812.000000 15500.8100  7.80%     -   80s
     0     0 15519.1724    0 1251 16812.0000 15519.1724  7.69%     -   80s
     0     0 15525.3542    0 1252 16812.0000 15525.3542  7.65%     -   84s
     0     0 15527.5058    0 1295 16812.0000 15527.5058  7.64%     -   86s
     0     0 15528.4614    0 1311 16812.0000 15528.4614  7.63%     -   87s
     0     0 15528.6493    0 1323 16812.0000 15528.6493  7.63%     -   87s
     0     0 15528.6599    0 1339 16812.0000 15528.6599  7.63%     -   87s
     0     0 15550.8472    0 1335 16812.0000 15550.8472  7.50%     -   94s
H    0     0                    16795.000000 15550.8472  7.41%     -   96s
     0     0 15559.2214    0 1356 16795.0000 15559.2214  7.36%     -  101s
     0     0 15562.8839    0 1369 16795.0000 15562.8839  7.34%     -  105s
     0     0 15563.6411    0 1403 16795.0000 15563.6411  7.33%     -  106s
     0     0 15563.7978    0 1386 16795.0000 15563.7978  7.33%     -  107s
     0     0 15563.8053    0 1392 16795.0000 15563.8053  7.33%     -  107s
     0     0 15579.3951    0 1400 16795.0000 15579.3951  7.24%     -  114s
H    0     0                    16783.000000 15579.3951  7.17%     -  114s
     0     0 15585.2267    0 1382 16783.0000 15585.2267  7.14%     -  120s
     0     0 15587.1728    0 1456 16783.0000 15587.1728  7.13%     -  124s
     0     0 15587.9169    0 1475 16783.0000 15587.9169  7.12%     -  126s
     0     0 15588.0540    0 1496 16783.0000 15588.0540  7.12%     -  127s
     0     0 15598.0705    0 1532 16783.0000 15598.0705  7.06%     -  132s
     0     0 15601.2282    0 1497 16783.0000 15601.2282  7.04%     -  147s
     0     0 15603.5618    0 1527 16783.0000 15603.5618  7.03%     -  150s
     0     0 15604.4659    0 1564 16783.0000 15604.4659  7.02%     -  152s
     0     0 15604.5860    0 1582 16783.0000 15604.5860  7.02%     -  153s
     0     0 15610.7158    0 1537 16783.0000 15610.7158  6.98%     -  159s
     0     0 15614.2549    0 1561 16783.0000 15614.2549  6.96%     -  163s
     0     0 15616.8288    0 1551 16783.0000 15616.8288  6.95%     -  168s
     0     0 15617.9918    0 1573 16783.0000 15617.9918  6.94%     -  170s
     0     0 15618.2075    0 1569 16783.0000 15618.2075  6.94%     -  171s
     0     0 15618.2889    0 1561 16783.0000 15618.2889  6.94%     -  171s
     0     0 15622.4261    0 1584 16783.0000 15622.4261  6.92%     -  176s
     0     0 15624.9709    0 1600 16783.0000 15624.9709  6.90%     -  184s
     0     0 15626.5073    0 1600 16783.0000 15626.5073  6.89%     -  187s
     0     0 15627.3496    0 1619 16783.0000 15627.3496  6.89%     -  189s
     0     0 15627.6578    0 1618 16783.0000 15627.6578  6.88%     -  190s
     0     0 15627.9331    0 1651 16783.0000 15627.9331  6.88%     -  192s
     0     0 15628.0334    0 1668 16783.0000 15628.0334  6.88%     -  192s
     0     0 15632.4504    0 1659 16783.0000 15632.4504  6.86%     -  198s
     0     0 15633.6493    0 1687 16783.0000 15633.6493  6.85%     -  201s
     0     0 15634.1397    0 1700 16783.0000 15634.1397  6.85%     -  203s
     0     0 15634.3082    0 1714 16783.0000 15634.3082  6.84%     -  204s
H    0     0                    16780.000000 15634.3082  6.83%     -  209s
     0     0 15638.1081    0 1709 16780.0000 15638.1081  6.81%     -  209s
     0     0 15639.3291    0 1733 16780.0000 15639.3291  6.80%     -  229s
     0     0 15639.9827    0 1721 16780.0000 15639.9827  6.79%     -  231s
     0     0 15640.3710    0 1742 16780.0000 15640.3710  6.79%     -  232s
     0     0 15640.4600    0 1756 16780.0000 15640.4600  6.79%     -  233s
     0     0 15643.4168    0 1767 16780.0000 15643.4168  6.77%     -  238s
     0     0 15644.5331    0 1723 16780.0000 15644.5331  6.77%     -  241s
     0     0 15645.0605    0 1741 16780.0000 15645.0605  6.76%     -  243s
     0     0 15645.3227    0 1781 16780.0000 15645.3227  6.76%     -  244s
     0     0 15648.3538    0 1749 16780.0000 15648.3538  6.74%     -  249s
     0     0 15649.2369    0 1744 16780.0000 15649.2369  6.74%     -  251s
     0     0 15649.5385    0 1775 16780.0000 15649.5385  6.74%     -  253s
     0     0 15649.8074    0 1787 16780.0000 15649.8074  6.74%     -  254s
     0     0 15650.8628    0 1795 16780.0000 15650.8628  6.73%     -  257s
     0     0 15650.8628    0 1782 16780.0000 15650.8628  6.73%     -  259s
     0     2 15650.8681    0 1773 16780.0000 15650.8681  6.73%     -  285s
     1     4 15652.1327    1 1720 16780.0000 15650.8681  6.73%  7499  290s
     3     8 15656.9850    2 1695 16780.0000 15652.1327  6.72%  7857  298s
     7    16 15659.3240    3 1707 16780.0000 15653.1118  6.72%  7604  325s
    15    24 15665.6425    4 1761 16780.0000 15655.4303  6.70% 14066  354s
    23    32 15673.8808    4 1670 16780.0000 15655.4303  6.70% 20198  373s
    31    40 15668.1647    5 1757 16780.0000 15656.0688  6.70% 20071  421s
H   33    40                    16751.000000 15656.0688  6.54% 20172  421s
    39    48 15679.0146    5 1684 16751.0000 15656.0688  6.54% 18792  433s
    47    56 15674.4866    6 1734 16751.0000 15656.3860  6.53% 17225  467s
    55    65 15670.0056    6 1747 16751.0000 15656.3860  6.53% 17153  517s
H   64    73                    16750.000000 15660.9612  6.50% 16315  551s
H   66    73                    16746.000000 15660.9612  6.48% 16171  551s
H   71    73                    16718.000000 15660.9612  6.32% 15656  551s
    72    79 15671.5642    7 1732 16718.0000 15660.9612  6.32% 15645  570s

Cutting planes:
  Cover: 5
  Clique: 318
  MIR: 531
  StrongCG: 302
  GUB cover: 319
  Zero half: 4
  RLT: 10

Explored 78 nodes (1649440 simplex iterations) in 570.02 seconds (1692.15 work units)
Thread count was 8 (of 8 available processors)

Solution count 10: 16718 16746 16750 ... 16853

Time limit reached
Best objective 1.671800000000e+04, best bound 1.566200000000e+04, gap 6.3165%
